
  32    4
  10   10   10   10

   0   0   0   0   0   3 2 24 31 
   9   1   1   0   1   2 30 3 
   2   8   4   0   6   1 4 
  10   8   6   0   2   1 5 
   1   2   0   1   3   1 6 
   7   0   3   5   6   1 7 
   1   5   0   3   5   2 29 8 
   7   5   1   7   0   2 28 9 
   2   4   2   0   2   1 10 
   8   1   0   2   3   1 11 
   2   0   6   4   2   1 12 
   4   0   4   7   4   1 13 
   6   0   7   5   2   1 14 
   2   3   3   0   8   1 15 
   3   0   2   4   7   1 16 
   6   0   2   3   2   1 17 
   7   4   0   5   5   2 27 18 
  10   0   4   4   4   1 19 
   4   7   3   4   0   1 20 
   9   6   5   3   0   1 21 
   2   2   8   0   6   1 22 
   8   2   0   3   4   1 23 
   5   5   0   3   2   1 25 
   1   4   3   4   0   1 25 
  10   1   8   0   5   1 26 
   9   4   0   5   4   1 32
   9   3   3   1   0   1 32
   6   0   4   4   4   1 32
   1   0   4   4   4   1 32
   2   4   5   8   0   1 32
   5   5   0   3   5   1 32
   0   0   0   0   0   0 
